Maximize
  0 x0 + 0 x1 - 11 x2 + 0 x3 + 0 x4 - 27 x5 + 0 x6 + 0 x7 + 0 x8 - 49 x9
   + 0 x10 + 0 x11 + 0 x12 + 0 x13 + 0 x14 + 0 x15 + 0 x16 - 41 x17 + 0 x18
   + 0 x19 - 13 x20 + 0 x21 + 0 x22 + 0 x23 + 0 x24 + 27 x25 + 0 x26
   + 0 x27 + 0 x28 + 0 x29 + 10 x30 + 0 x31 + 0 x32 + 0 x33 + 0 x34 + 0 x35
   + 0 x36 + 0 x37 + 0 x38 + 0 x39 + 0 x40 + 0 x41 + 0 x42 + 0 x43 - 36 x44
   + 0 x45 + 0 x46 + 0 x47 + 0 x48 + 0 x49 + 0 x50 + 0 x51 + 17 x52 + 0 x53
   - 49 x54 + 0 x55 + 0 x56 + 0 x57 + 35 x58 - 34 x59 + 0 x60 + 0 x61
   + 0 x62 + 0 x63 + 0 x64 + 0 x65 + 0 x66 + 0 x67 + 0 x68 + 0 x69 + 0 x70
   + 0 x71 + 0 x72 - 5 x73 + 48 x74 + 0 x75 - 38 x76 + 0 x77 + 0 x78
   + 46 x79 + 0 x80 + 0 x81 + 0 x82 - 35 x83 + 0 x84 + 0 x85 + 0 x86
   + 4 x87 + 38 x88 + 0 x89 + [ - 64 x0 * x1 + 50 x0 * x3 - 36 x0 * x6
   - 40 x0 * x11 + 12 x0 * x12 - 90 x0 * x17 - 56 x0 * x28 + 84 x0 * x31
   - 98 x0 * x36 - 12 x0 * x37 + 2 x0 * x38 - 32 x0 * x45 - 82 x0 * x47
   - 82 x0 * x57 + 46 x0 * x61 - 82 x0 * x63 - 14 x0 * x64 - 82 x0 * x66
   + 2 x0 * x70 + 6 x0 * x74 - 24 x0 * x75 + 2 x0 * x77 + 86 x0 * x81
   + 46 x0 * x86 - 50 x1 * x4 + 36 x1 * x5 - 20 x1 * x11 + 92 x1 * x13
   - 82 x1 * x14 + 42 x1 * x19 - 40 x1 * x24 + 10 x1 * x29 - 12 x1 * x35
   - 96 x1 * x51 - 82 x1 * x63 - 6 x1 * x68 + 76 x1 * x70 - 18 x1 * x80
   + 24 x1 * x89 + 34 x2 * x7 + 44 x2 * x10 - 16 x2 * x11 - 32 x2 * x13
   + 72 x2 * x15 - 2 x2 * x25 + 36 x2 * x26 + 64 x2 * x31 + 64 x2 * x32
   + 72 x2 * x35 - 90 x2 * x37 - 64 x2 * x44 - 60 x2 * x58 - 66 x2 * x62
   + 14 x2 * x73 - 82 x2 * x76 - 27 x3 ^2 + 50 x3 * x7 - 62 x3 * x11
   + 68 x3 * x13 - 36 x3 * x15 + 32 x3 * x19 - 86 x3 * x20 + 56 x3 * x22
   - 16 x3 * x23 + 2 x3 * x33 - 96 x3 * x37 - 28 x3 * x38 + 14 x3 * x39
   + 2 x3 * x41 - 86 x3 * x49 + 10 x3 * x55 + 72 x3 * x56 + 82 x3 * x58
   + 82 x3 * x59 - 50 x3 * x69 + 18 x3 * x73 + 28 x3 * x74 + 26 x3 * x77
   - 42 x3 * x82 + 70 x3 * x83 - 16 x3 * x85 + 34 x4 ^2 - 32 x4 * x5
   + 84 x4 * x7 + 16 x4 * x8 - 70 x4 * x14 + 50 x4 * x28 - 84 x4 * x29
   + 10 x4 * x32 + 66 x4 * x36 - 62 x4 * x40 + 36 x4 * x42 - 50 x4 * x44
   - 14 x4 * x46 - 94 x4 * x47 - 90 x4 * x48 - 26 x4 * x58 + 78 x4 * x60
   + 38 x4 * x61 - 56 x4 * x73 - 76 x4 * x78 + 6 x4 * x79 - 90 x4 * x89
   + 8 x5 * x12 + 40 x5 * x14 + 86 x5 * x15 + 24 x5 * x22 - 14 x5 * x23
   - 98 x5 * x24 - 82 x5 * x34 - 88 x5 * x36 - 36 x5 * x48 - 4 x5 * x51
   + 78 x5 * x53 + 90 x5 * x58 + 82 x5 * x63 - 56 x5 * x66 + 84 x5 * x68
   - 92 x5 * x76 - 12 x5 * x85 - 50 x6 * x11 - 72 x6 * x12 + 78 x6 * x13
   + 94 x6 * x19 - 86 x6 * x21 + 50 x6 * x28 - 8 x6 * x29 - 10 x6 * x33
   - 42 x6 * x37 + 20 x6 * x39 + 6 x6 * x40 - 74 x6 * x41 + 10 x6 * x49
   - 58 x6 * x54 - 34 x6 * x56 - 54 x6 * x58 + 70 x6 * x63 + 2 x6 * x72
   + 90 x6 * x74 - 4 x6 * x82 + 70 x6 * x83 - 54 x6 * x87 - 16 x6 * x89
   + 4 x7 ^2 - 30 x7 * x14 - 14 x7 * x17 - 98 x7 * x18 - 86 x7 * x22
   + 86 x7 * x28 - 94 x7 * x30 + 68 x7 * x35 - 86 x7 * x36 - 10 x7 * x40
   - 36 x7 * x42 + 88 x7 * x48 + 18 x7 * x51 + 16 x7 * x53 + 50 x7 * x55
   - 86 x7 * x70 + 34 x7 * x81 - 12 x7 * x85 - 98 x7 * x87 + 68 x8 * x13
   + 94 x8 * x14 - 18 x8 * x24 - 2 x8 * x29 - 50 x8 * x30 + 22 x8 * x31
   - 74 x8 * x34 + 40 x8 * x42 - 62 x8 * x43 - 80 x8 * x47 - 48 x8 * x49
   - 62 x8 * x56 + 50 x8 * x58 - 26 x8 * x62 + 2 x8 * x63 - 38 x8 * x70
   - 84 x8 * x74 - 46 x8 * x75 - 16 x8 * x76 + 6 x8 * x78 - 32 x8 * x79
   + 40 x8 * x80 - 38 x8 * x81 - 32 x9 * x14 - 58 x9 * x23 - 44 x9 * x29
   + 66 x9 * x36 - 2 x9 * x37 + 70 x9 * x40 + 38 x9 * x53 - 82 x9 * x55
   - 28 x9 * x59 + 6 x9 * x64 + 52 x9 * x65 + 50 x9 * x66 + 38 x9 * x67
   + 34 x9 * x74 - 98 x9 * x84 + 96 x9 * x86 - 54 x9 * x88 + 24 x10 * x15
   - 40 x10 * x17 - 48 x10 * x20 + 4 x10 * x34 - 8 x10 * x37 - 30 x10 * x38
   + 48 x10 * x42 + 18 x10 * x46 - 90 x10 * x51 + 44 x10 * x54
   + 2 x10 * x56 + 94 x10 * x62 - 78 x10 * x73 - 92 x10 * x74 + 4 x10 * x76
   - 26 x10 * x83 - 4 x10 * x86 - 50 x11 * x12 + 28 x11 * x13
   - 20 x11 * x14 - 94 x11 * x22 + 24 x11 * x23 - 80 x11 * x24
   + 94 x11 * x27 + 48 x11 * x29 + 80 x11 * x30 + 66 x11 * x32
   + 70 x11 * x34 + 50 x11 * x37 - 74 x11 * x38 + 68 x11 * x41
   + 66 x11 * x42 + 70 x11 * x45 + 10 x11 * x46 + 80 x11 * x47
   - 34 x11 * x53 - 76 x11 * x57 - 48 x11 * x58 + 56 x11 * x63
   - 48 x11 * x64 + 18 x11 * x72 + 10 x11 * x75 - 92 x11 * x76
   - 70 x11 * x82 - 80 x12 * x13 - 86 x12 * x20 - 92 x12 * x23
   - 78 x12 * x27 - 86 x12 * x34 + 20 x12 * x37 + 94 x12 * x45
   - 92 x12 * x46 - 18 x12 * x49 + 70 x12 * x53 - 82 x12 * x63
   + 24 x12 * x64 + 58 x12 * x68 + 34 x12 * x69 - 14 x12 * x71
   - 8 x12 * x75 + 70 x12 * x78 - 72 x12 * x82 + 68 x12 * x85
   - 98 x12 * x86 + 18 x13 * x14 - 14 x13 * x15 - 82 x13 * x19
   - 28 x13 * x21 - 92 x13 * x24 - 60 x13 * x25 - 14 x13 * x27
   + 8 x13 * x31 - 22 x13 * x32 - 14 x13 * x34 + 40 x13 * x37
   - 46 x13 * x39 - 52 x13 * x40 + 24 x13 * x65 + 18 x13 * x66
   + 28 x13 * x72 - 70 x13 * x79 + 92 x13 * x83 - 50 x13 * x85
   + 18 x13 * x86 - 44 x13 * x88 + 2 x14 * x21 - 92 x14 * x25
   + 54 x14 * x27 - 88 x14 * x30 - 88 x14 * x37 + 30 x14 * x38
   - 28 x14 * x40 - 78 x14 * x46 - 28 x14 * x53 + 56 x14 * x59
   + 70 x14 * x61 - 82 x14 * x65 - 68 x14 * x79 - 96 x14 * x82
   - 10 x14 * x85 + 52 x14 * x89 + 64 x15 * x16 + 16 x15 * x17
   - 94 x15 * x34 + 54 x15 * x48 + 86 x15 * x53 - 78 x15 * x58
   + 92 x15 * x59 + 74 x15 * x61 - 92 x15 * x79 + 16 x16 * x18
   - 68 x16 * x20 - 24 x16 * x22 + 76 x16 * x26 + 68 x16 * x33
   + 94 x16 * x35 - 90 x16 * x40 - 26 x16 * x50 - 46 x16 * x52
   + 72 x16 * x58 - 64 x16 * x59 + 30 x16 * x64 - 2 x16 * x66
   - 22 x16 * x72 + 20 x16 * x84 + 32 x16 * x87 + 9 x17 ^2 + 58 x17 * x24
   - 98 x17 * x29 - 20 x17 * x36 + 4 x17 * x39 + 92 x17 * x42
   - 82 x17 * x46 - 10 x17 * x52 + 46 x17 * x55 + 74 x17 * x57
   + 14 x17 * x70 - 54 x17 * x74 - 90 x17 * x75 + 56 x17 * x76
   - 86 x17 * x81 - 40 x17 * x83 + 22 x17 * x85 + 11 x18 ^2 + 24 x18 * x29
   + 52 x18 * x33 - 32 x18 * x34 - 80 x18 * x36 - 34 x18 * x37
   - 18 x18 * x42 - 60 x18 * x44 + 18 x18 * x48 + 94 x18 * x49
   + 90 x18 * x52 + 44 x18 * x61 + 98 x18 * x73 - 28 x18 * x76
   - 42 x18 * x81 - 56 x18 * x82 - 74 x18 * x83 + 42 x18 * x85
   - 82 x19 * x20 - 78 x19 * x21 - 8 x19 * x25 - 16 x19 * x31
   - 36 x19 * x34 - 64 x19 * x35 + 22 x19 * x41 + 28 x19 * x43
   - 46 x19 * x48 + 88 x19 * x50 + 42 x19 * x54 - 46 x19 * x56
   - 42 x19 * x58 - 60 x19 * x59 + 48 x19 * x62 + 86 x19 * x67
   - 48 x19 * x71 - 30 x19 * x77 + 6 x19 * x78 + 16 x19 * x80
   + 66 x19 * x81 - 12 x19 * x82 - 32 x19 * x83 - 70 x20 * x24
   - 4 x20 * x27 + 88 x20 * x30 - 38 x20 * x39 - 82 x20 * x41
   - 68 x20 * x53 - 8 x20 * x54 - 42 x20 * x57 - 60 x20 * x72 - 4 x20 * x81
   - 24 x20 * x84 - 54 x21 * x31 + 50 x21 * x32 + 60 x21 * x40
   + 60 x21 * x42 - 42 x21 * x43 + 74 x21 * x57 + 14 x21 * x59
   - 30 x21 * x72 + 4 x21 * x73 - 54 x21 * x75 - 24 x21 * x81
   - 10 x21 * x86 - 86 x21 * x88 - 50 x22 * x24 - 76 x22 * x26
   + 72 x22 * x27 - 82 x22 * x32 - 12 x22 * x34 + 22 x22 * x35
   + 80 x22 * x37 + 58 x22 * x38 - 12 x22 * x39 - 34 x22 * x44
   + 74 x22 * x55 + 16 x22 * x62 + 96 x22 * x63 - 62 x22 * x64
   + 92 x22 * x66 - 18 x22 * x73 + 52 x22 * x76 + 56 x22 * x89
   + 54 x23 * x25 - 88 x23 * x27 - 10 x23 * x33 - 74 x23 * x41
   + 42 x23 * x54 + 96 x23 * x56 - 72 x23 * x57 + 74 x23 * x60
   - 80 x23 * x65 - 54 x23 * x68 - 52 x23 * x79 + 40 x23 * x81
   + 96 x23 * x82 + 56 x23 * x85 + 16 x23 * x87 + 30 x24 * x26
   - 82 x24 * x35 - 78 x24 * x38 + 56 x24 * x42 - 72 x24 * x52
   + 22 x24 * x53 + 28 x24 * x57 + 72 x24 * x63 - 34 x24 * x64
   - 26 x24 * x77 + 62 x24 * x80 - 62 x24 * x86 + 96 x24 * x87
   + 78 x25 * x30 + 18 x25 * x35 + 68 x25 * x38 + 16 x25 * x42
   - 24 x25 * x55 + 94 x25 * x57 - 28 x25 * x59 + 30 x25 * x60
   - 44 x25 * x62 - 58 x25 * x65 + 74 x25 * x66 + 60 x25 * x71
   - 58 x25 * x78 + 26 x25 * x82 + 16 x25 * x84 + 86 x25 * x87 + 12 x26 ^2
   - 96 x26 * x28 - 24 x26 * x29 - 32 x26 * x33 + 72 x26 * x35
   + 42 x26 * x37 + 78 x26 * x42 - 84 x26 * x48 - 16 x26 * x51
   + 52 x26 * x52 + 22 x26 * x60 - 50 x26 * x61 + 26 x26 * x62
   - 6 x26 * x65 + 6 x26 * x66 + 8 x26 * x68 + 60 x26 * x72 - 46 x26 * x76
   + 42 x27 * x33 + 2 x27 * x34 - 26 x27 * x37 + 58 x27 * x46
   - 22 x27 * x49 - 24 x27 * x50 + 22 x27 * x52 - 10 x27 * x55
   + 70 x27 * x58 - 72 x27 * x61 - 4 x27 * x62 + 6 x27 * x64 + 62 x27 * x76
   + 26 x27 * x82 + 16 x27 * x86 - 28 x27 * x87 - 62 x28 * x31
   + 74 x28 * x35 + 44 x28 * x38 + 72 x28 * x39 - 36 x28 * x52
   + 74 x28 * x60 + 18 x28 * x61 - 90 x28 * x62 + 84 x28 * x83
   + 96 x28 * x89 - 5 x29 ^2 + 98 x29 * x31 + 6 x29 * x33 - 46 x29 * x39
   - 72 x29 * x51 - 22 x29 * x57 + 32 x29 * x58 + 62 x29 * x60
   - 30 x29 * x63 + 24 x29 * x66 + 90 x29 * x72 + 14 x29 * x74
   - 88 x29 * x77 - 90 x29 * x81 + 20 x29 * x82 - 22 x29 * x86
   + 90 x29 * x87 - 42 x30 ^2 + 98 x30 * x31 + 68 x30 * x32 + 32 x30 * x34
   - 20 x30 * x36 + 46 x30 * x37 - 42 x30 * x38 - 18 x30 * x41
   - 84 x30 * x43 - 30 x30 * x57 - 42 x30 * x59 + 74 x30 * x65
   - 96 x30 * x66 - 22 x30 * x67 + 16 x30 * x68 + 38 x30 * x71
   + 48 x30 * x81 - 58 x30 * x89 - 41 x31 ^2 + 98 x31 * x33 + 32 x31 * x36
   + 74 x31 * x38 - 6 x31 * x42 + 24 x31 * x44 + 20 x31 * x48
   - 44 x31 * x59 - 44 x31 * x61 + 88 x31 * x74 - 88 x31 * x81
   - 32 x31 * x82 - 62 x31 * x86 + 2 x32 * x39 - 10 x32 * x40
   + 54 x32 * x46 - 26 x32 * x53 + 16 x32 * x60 - 76 x32 * x67
   - 12 x32 * x72 - 30 x32 * x74 - 20 x32 * x75 - 32 x32 * x77
   + 24 x32 * x83 - 4 x32 * x84 - 42 x32 * x86 + 82 x32 * x89
   + 62 x33 * x35 - 4 x33 * x37 - 66 x33 * x38 - 2 x33 * x44 + 88 x33 * x50
   - 16 x33 * x55 + 28 x33 * x57 - 4 x33 * x60 + 20 x33 * x63
   - 68 x33 * x67 - 84 x33 * x73 - 4 x33 * x74 + 36 x33 * x87
   - 12 x34 * x35 - 56 x34 * x41 - 56 x34 * x55 - 10 x34 * x56
   - 32 x34 * x57 - 8 x34 * x59 + 52 x34 * x66 + 88 x34 * x68
   + 72 x34 * x72 - 12 x34 * x75 - 50 x34 * x76 + 56 x34 * x83
   - 24 x35 * x52 + 16 x35 * x56 - 94 x35 * x66 + 14 x35 * x76
   + 82 x35 * x78 + 4 x35 * x79 - 22 x35 * x80 + 48 x35 * x82
   - 98 x36 * x40 - 12 x36 * x41 - 24 x36 * x42 + 90 x36 * x43
   - 84 x36 * x48 + 74 x36 * x51 - 38 x36 * x57 + 94 x36 * x59
   - 68 x36 * x66 + 62 x36 * x73 + 82 x36 * x75 - 12 x36 * x83
   + 74 x36 * x88 + 92 x37 * x38 - 8 x37 * x40 + 40 x37 * x47
   - 70 x37 * x52 + 84 x37 * x57 + 18 x37 * x63 + 56 x37 * x65
   + 90 x37 * x67 - 68 x37 * x74 - 38 x37 * x83 - 62 x37 * x84
   + 28 x38 * x39 + 16 x38 * x40 - 6 x38 * x43 + 60 x38 * x47
   + 82 x38 * x49 + 22 x38 * x51 + 28 x38 * x53 + 60 x38 * x54
   + 78 x38 * x55 + 98 x38 * x56 - 38 x38 * x57 - 6 x38 * x58
   - 38 x38 * x61 - 84 x38 * x64 + 12 x38 * x75 + 90 x38 * x80
   + 44 x38 * x88 + 36 x39 ^2 - 30 x39 * x41 + 22 x39 * x42 + 34 x39 * x43
   - 66 x39 * x45 - 60 x39 * x46 + 26 x39 * x48 - 30 x39 * x51
   + 46 x39 * x52 - 2 x39 * x57 - 66 x39 * x60 + 14 x39 * x67 + 4 x39 * x69
   - 34 x39 * x70 - 32 x39 * x72 + 98 x39 * x76 - 66 x39 * x77
   - 22 x39 * x79 - 12 x39 * x85 - 18 x39 * x86 + 80 x39 * x88
   - 16 x39 * x89 + 86 x40 * x42 + 82 x40 * x44 + 50 x40 * x47
   + 60 x40 * x49 - 78 x40 * x50 + 4 x40 * x52 + 88 x40 * x53 + 6 x40 * x54
   + 20 x40 * x55 - 36 x40 * x56 - 56 x40 * x61 - 64 x40 * x83
   + 36 x40 * x85 - 92 x40 * x86 - 78 x40 * x88 + 14 x41 * x45
   + 70 x41 * x47 + 20 x41 * x49 - 72 x41 * x59 + 44 x41 * x63
   - 94 x41 * x74 - 96 x41 * x76 + 30 x41 * x78 + 96 x41 * x84
   + 88 x41 * x85 - 24 x41 * x87 - 24 x41 * x88 - 28 x42 * x43
   - 72 x42 * x46 + 90 x42 * x48 + 12 x42 * x53 - 18 x42 * x54
   + 58 x42 * x60 + 50 x42 * x64 - 42 x42 * x66 + 36 x42 * x67
   + 88 x42 * x74 + 50 x42 * x84 + 78 x43 * x48 + 58 x43 * x58
   - 54 x43 * x65 + 10 x43 * x73 - 38 x43 * x76 - 24 x43 * x87
   - 42 x44 * x46 - 72 x44 * x47 - 86 x44 * x48 + 92 x44 * x54
   + 4 x44 * x59 - 48 x44 * x62 - 92 x44 * x70 + 56 x44 * x78
   - 94 x44 * x82 - 72 x44 * x84 + 98 x44 * x85 - 98 x45 * x57
   - 84 x45 * x65 - 26 x45 * x68 + 42 x45 * x69 + 98 x45 * x73
   + 12 x45 * x80 + 64 x46 * x52 - 58 x46 * x61 - 72 x46 * x64
   - 28 x46 * x67 - 96 x46 * x69 + 68 x46 * x80 + 62 x46 * x81
   - 74 x46 * x82 + 46 x46 * x83 + 50 x46 * x89 - 96 x47 * x50
   - 80 x47 * x66 + 26 x47 * x68 + 76 x47 * x69 - 30 x47 * x75
   - 42 x47 * x78 + 66 x47 * x82 - 26 x47 * x84 - 54 x47 * x86
   + 4 x47 * x88 - 16 x48 * x53 - 86 x48 * x54 + 82 x48 * x59 + 2 x48 * x64
   - 2 x48 * x67 - 96 x48 * x72 - 64 x48 * x77 + 28 x48 * x78
   - 94 x48 * x79 - 76 x48 * x82 - 70 x48 * x86 - 4 x48 * x87
   + 88 x49 * x56 + 92 x49 * x63 - 96 x49 * x67 - 58 x49 * x68
   - 32 x49 * x70 - 62 x49 * x73 - 46 x49 * x79 - 42 x49 * x80
   + 44 x49 * x81 + 14 x49 * x82 - 20 x50 * x52 - 48 x50 * x59
   - 58 x50 * x64 - 72 x50 * x65 + 66 x50 * x66 - 52 x50 * x69
   - 90 x50 * x71 + 34 x50 * x75 + 84 x50 * x82 + 12 x50 * x87
   + 28 x51 * x59 + 58 x51 * x60 + 54 x51 * x66 - 86 x51 * x71
   - 74 x51 * x73 + 16 x51 * x76 + 70 x51 * x79 + 2 x51 * x82
   - 92 x52 * x53 + 8 x52 * x55 + 30 x52 * x58 - 24 x52 * x59
   - 16 x52 * x64 - 38 x52 * x66 + 50 x52 * x68 + 80 x52 * x70
   + 84 x52 * x72 - 68 x52 * x74 + 60 x52 * x89 - 24 x53 ^2 - 32 x53 * x54
   + 36 x53 * x58 + 48 x53 * x62 - 16 x53 * x63 + 14 x53 * x77
   + 64 x54 * x67 - 78 x54 * x68 - 82 x54 * x74 + 10 x54 * x75
   + 6 x54 * x78 + 54 x54 * x81 + 56 x54 * x84 - 66 x54 * x87
   - 96 x54 * x88 + 36 x55 * x56 + 52 x55 * x57 - 4 x55 * x60
   + 98 x55 * x61 - 60 x55 * x65 - 44 x55 * x66 - 14 x55 * x67
   + 10 x55 * x68 - 46 x55 * x73 + 44 x55 * x74 - 56 x55 * x84
   - 4 x55 * x85 + 72 x55 * x88 + 28 x56 * x61 + 96 x56 * x62
   - 38 x56 * x70 - 16 x56 * x76 + 76 x56 * x78 + 68 x56 * x80
   + 4 x56 * x81 + 82 x56 * x83 - 30 x56 * x85 + 42 x56 * x87
   + 34 x57 * x58 + 70 x57 * x63 + 34 x57 * x65 + 58 x57 * x66
   + 42 x57 * x67 + 78 x57 * x69 - 94 x57 * x71 + 26 x57 * x74
   - 22 x57 * x75 - 44 x57 * x78 - 40 x57 * x82 + 70 x58 * x62
   + 98 x58 * x63 + 24 x58 * x64 - 16 x58 * x70 + 16 x58 * x77
   + 56 x58 * x80 - 28 x58 * x81 - 60 x58 * x87 + 15 x59 ^2 + 64 x59 * x61
   + 80 x59 * x62 + 96 x59 * x63 + 14 x59 * x66 + 4 x59 * x72
   + 54 x59 * x76 - 60 x59 * x77 - 12 x60 * x62 - 54 x60 * x64
   + 66 x60 * x76 + 40 x60 * x79 + 66 x60 * x87 - 43 x61 ^2 - 72 x61 * x65
   + 48 x61 * x75 + 64 x61 * x79 - 48 x61 * x89 + 52 x62 * x67
   + 98 x62 * x70 + 96 x62 * x77 + 26 x62 * x82 + 40 x62 * x84
   - 28 x62 * x85 - 28 x62 * x88 + 32 x62 * x89 - 64 x63 * x65
   - 52 x63 * x69 - 38 x63 * x71 + 46 x63 * x74 + 78 x63 * x75
   + 12 x63 * x79 + 54 x63 * x80 + 6 x63 * x82 + 58 x63 * x84
   - 96 x63 * x89 - 20 x64 * x65 + 52 x64 * x73 - 60 x64 * x78
   - 26 x64 * x80 - 58 x64 * x83 - 90 x64 * x86 + 32 x65 ^2 - 48 x65 * x66
   + 74 x65 * x72 + 2 x65 * x74 - 54 x65 * x78 + 14 x65 * x81
   + 56 x65 * x84 - 74 x66 * x67 + 54 x66 * x68 + 94 x66 * x75
   + 6 x66 * x76 - 30 x66 * x84 - 4 x66 * x88 + 60 x66 * x89 - 78 x67 * x71
   + 16 x67 * x73 - 42 x67 * x74 - 62 x67 * x76 + 70 x67 * x78
   + 96 x67 * x79 + 2 x67 * x80 - 36 x67 * x82 + 31 x68 ^2 + 8 x68 * x69
   + 62 x68 * x70 + 64 x68 * x75 + 38 x69 * x71 + 94 x69 * x72
   - 10 x69 * x73 + 94 x69 * x74 + 68 x69 * x80 + 98 x69 * x87
   + 42 x69 * x88 - 32 x70 * x71 + 66 x70 * x78 + 38 x70 * x79
   - 46 x70 * x83 + 42 x70 * x86 - 48 x70 * x87 + 86 x70 * x88 - 10 x71 ^2
   + 24 x71 * x72 + 72 x71 * x74 - 30 x71 * x78 + 28 x71 * x80
   + 20 x71 * x83 + 60 x71 * x85 - 30 x72 ^2 + 30 x72 * x78 + 24 x72 * x83
   - 64 x72 * x85 - 44 x72 * x87 - 72 x72 * x88 - 38 x73 ^2 + 14 x73 * x78
   + 34 x73 * x80 - 40 x73 * x88 + 84 x73 * x89 + 98 x74 * x78
   + 22 x75 * x76 + 70 x75 * x77 + 40 x75 * x83 - 40 x76 * x86 - 33 x77 ^2
   + 72 x77 * x86 - 8 x77 * x89 + 26 x78 * x82 - 66 x78 * x84
   - 72 x79 * x80 + 76 x79 * x83 + 4 x79 * x84 - 80 x80 * x81
   - 32 x80 * x85 - 92 x80 * x86 - 76 x81 * x84 + 64 x81 * x86
   - 18 x81 * x88 - 82 x81 * x89 - 2 x82 * x87 + 98 x82 * x88
   - 36 x82 * x89 - 46 x86 * x88 + 32 x86 * x89 - 38 x87 * x88
   + 44 x87 * x89 + 86 x88 * x89 ] / 2 
Subject To
Bounds
 x0 <= 1
 x1 <= 1
 x2 <= 1
 x3 <= 1
 x4 <= 1
 x5 <= 1
 x6 <= 1
 x7 <= 1
 x8 <= 1
 x9 <= 1
 x10 <= 1
 x11 <= 1
 x12 <= 1
 x13 <= 1
 x14 <= 1
 x15 <= 1
 x16 <= 1
 x17 <= 1
 x18 <= 1
 x19 <= 1
 x20 <= 1
 x21 <= 1
 x22 <= 1
 x23 <= 1
 x24 <= 1
 x25 <= 1
 x26 <= 1
 x27 <= 1
 x28 <= 1
 x29 <= 1
 x30 <= 1
 x31 <= 1
 x32 <= 1
 x33 <= 1
 x34 <= 1
 x35 <= 1
 x36 <= 1
 x37 <= 1
 x38 <= 1
 x39 <= 1
 x40 <= 1
 x41 <= 1
 x42 <= 1
 x43 <= 1
 x44 <= 1
 x45 <= 1
 x46 <= 1
 x47 <= 1
 x48 <= 1
 x49 <= 1
 x50 <= 1
 x51 <= 1
 x52 <= 1
 x53 <= 1
 x54 <= 1
 x55 <= 1
 x56 <= 1
 x57 <= 1
 x58 <= 1
 x59 <= 1
 x60 <= 1
 x61 <= 1
 x62 <= 1
 x63 <= 1
 x64 <= 1
 x65 <= 1
 x66 <= 1
 x67 <= 1
 x68 <= 1
 x69 <= 1
 x70 <= 1
 x71 <= 1
 x72 <= 1
 x73 <= 1
 x74 <= 1
 x75 <= 1
 x76 <= 1
 x77 <= 1
 x78 <= 1
 x79 <= 1
 x80 <= 1
 x81 <= 1
 x82 <= 1
 x83 <= 1
 x84 <= 1
 x85 <= 1
 x86 <= 1
 x87 <= 1
 x88 <= 1
 x89 <= 1
End
